Problem:    courses
Rows:       4
Columns:    4 (4 integer, 4 binary)
Non-zeros:  16
Status:     INTEGER OPTIMAL
Objective:  total_effort = 9 (MINimum)

   No.   Row name        Activity     Lower bound   Upper bound
------ ------------    ------------- ------------- -------------
     1 total_effort                9                             
     2 req_filled[ns]
                                  12            10               
     3 req_filled[ss]
                                  11            10               
     4 req_filled[hm]
                                  11            10               

   No. Column name       Activity     Lower bound   Upper bound
------ ------------    ------------- ------------- -------------
     1 courses_taken[c1]
                    *              0             0             1 
     2 courses_taken[c2]
                    *              1             0             1 
     3 courses_taken[c3]
                    *              1             0             1 
     4 courses_taken[c4]
                    *              1             0             1 

Integer feasibility conditions:

KKT.PE: max.abs.err = 0.00e+00 on row 0
        max.rel.err = 0.00e+00 on row 0
        High quality

KKT.PB: max.abs.err = 0.00e+00 on row 0
        max.rel.err = 0.00e+00 on row 0
        High quality

End of output
